p edges 64 604
e 1 34
e 1 3
e 1 37
e 1 6
e 1 7
e 1 42
e 1 11
e 1 13
e 1 35
e 1 15
e 1 14
e 1 52
e 1 21
e 1 24
e 1 53
e 1 64
e 1 38
e 2 5
e 2 11
e 2 13
e 2 18
e 2 19
e 2 21
e 2 24
e 2 25
e 2 26
e 2 29
e 2 30
e 2 33
e 2 35
e 2 38
e 2 43
e 2 44
e 2 46
e 2 47
e 2 49
e 2 52
e 2 53
e 2 55
e 2 60
e 3 35
e 3 37
e 3 38
e 3 39
e 3 40
e 3 12
e 3 46
e 3 17
e 3 18
e 3 55
e 3 26
e 3 27
e 3 60
e 3 29
e 3 30
e 3 63
e 4 33
e 4 58
e 4 6
e 4 7
e 4 43
e 4 56
e 4 13
e 4 46
e 4 47
e 4 16
e 4 51
e 4 52
e 4 22
e 4 24
e 4 25
e 4 26
e 4 27
e 4 28
e 4 62
e 4 54
e 5 33
e 5 37
e 5 8
e 5 41
e 5 11
e 5 12
e 5 13
e 5 15
e 5 16
e 5 18
e 5 19
e 5 54
e 5 24
e 5 25
e 5 40
e 5 28
e 5 64
e 6 34
e 6 37
e 6 39
e 6 8
e 6 41
e 6 42
e 6 43
e 6 13
e 6 48
e 6 18
e 6 51
e 6 59
e 6 22
e 6 56
e 6 26
e 6 27
e 6 64
e 6 54
e 6 32
e 7 8
e 7 9
e 7 12
e 7 14
e 7 16
e 7 18
e 7 21
e 7 22
e 7 23
e 7 29
e 7 31
e 7 37
e 7 38
e 7 39
e 7 40
e 7 43
e 7 44
e 7 46
e 7 49
e 7 54
e 7 57
e 8 34
e 8 50
e 8 41
e 8 11
e 8 13
e 8 14
e 8 17
e 8 18
e 8 58
e 8 21
e 8 22
e 8 57
e 8 25
e 8 26
e 8 62
e 8 63
e 8 53
e 9 34
e 9 42
e 9 45
e 9 30
e 9 49
e 9 54
e 9 23
e 9 26
e 9 59
e 9 62
e 9 64
e 10 33
e 10 12
e 10 38
e 10 40
e 10 11
e 10 44
e 10 51
e 10 59
e 10 22
e 10 24
e 10 26
e 10 27
e 10 64
e 10 61
e 10 30
e 10 54
e 11 62
e 11 36
e 11 38
e 11 42
e 11 12
e 11 13
e 11 14
e 11 45
e 11 50
e 11 22
e 11 24
e 11 29
e 11 43
e 11 54
e 12 36
e 12 39
e 12 41
e 12 61
e 12 49
e 12 20
e 12 53
e 12 54
e 12 23
e 12 29
e 12 62
e 12 38
e 13 52
e 13 42
e 13 44
e 13 15
e 13 50
e 13 33
e 13 57
e 13 22
e 13 55
e 13 24
e 13 47
e 13 28
e 13 54
e 14 44
e 14 38
e 14 40
e 14 51
e 14 46
e 14 47
e 14 16
e 14 49
e 14 18
e 14 19
e 14 52
e 14 53
e 14 23
e 14 57
e 14 25
e 14 48
e 15 35
e 15 60
e 15 38
e 15 41
e 15 42
e 15 46
e 15 48
e 15 19
e 15 20
e 15 21
e 15 54
e 15 24
e 15 28
e 15 30
e 15 63
e 15 32
e 16 34
e 16 38
e 16 62
e 16 18
e 16 20
e 16 21
e 16 63
e 16 58
e 16 37
e 16 27
e 16 28
e 16 61
e 16 30
e 16 31
e 16 52
e 17 33
e 17 44
e 17 38
e 17 41
e 17 43
e 17 40
e 17 35
e 17 51
e 17 53
e 17 23
e 17 25
e 17 26
e 18 60
e 18 42
e 18 40
e 18 35
e 18 47
e 18 41
e 18 51
e 18 53
e 18 23
e 18 28
e 18 62
e 18 63
e 19 39
e 19 47
e 19 48
e 19 50
e 19 52
e 19 57
e 19 55
e 19 24
e 19 25
e 19 28
e 19 61
e 19 30
e 19 54
e 20 34
e 20 43
e 20 44
e 20 45
e 20 62
e 20 50
e 20 53
e 20 22
e 20 55
e 20 24
e 20 47
e 20 59
e 20 48
e 20 61
e 20 30
e 20 31
e 21 22
e 21 31
e 21 32
e 21 33
e 21 35
e 21 36
e 21 38
e 21 40
e 21 41
e 21 42
e 21 44
e 21 49
e 21 50
e 21 51
e 21 54
e 21 63
e 22 23
e 22 25
e 22 26
e 22 29
e 22 35
e 22 39
e 22 40
e 22 44
e 22 48
e 22 52
e 22 54
e 22 60
e 22 61
e 23 49
e 23 35
e 23 42
e 23 58
e 23 62
e 23 41
e 23 26
e 23 61
e 23 30
e 23 31
e 23 54
e 24 39
e 24 33
e 24 40
e 24 51
e 24 47
e 24 55
e 24 63
e 24 27
e 24 54
e 24 31
e 24 52
e 25 39
e 25 64
e 25 49
e 25 44
e 25 45
e 25 50
e 25 52
e 25 59
e 25 60
e 25 63
e 25 32
e 26 34
e 26 51
e 26 52
e 26 27
e 26 32
e 27 33
e 27 44
e 27 46
e 27 50
e 27 57
e 27 62
e 27 63
e 28 35
e 28 50
e 28 41
e 28 61
e 28 44
e 28 51
e 28 49
e 28 36
e 28 57
e 28 59
e 28 48
e 28 29
e 28 30
e 28 32
e 29 36
e 29 37
e 29 38
e 29 41
e 29 62
e 29 49
e 29 44
e 29 54
e 29 52
e 29 60
e 29 58
e 29 30
e 29 32
e 30 31
e 30 32
e 30 50
e 30 52
e 30 56
e 30 57
e 30 59
e 30 60
e 30 62
e 30 63
e 30 64
e 31 34
e 31 38
e 31 40
e 31 42
e 31 43
e 31 44
e 31 53
e 31 39
e 31 32
e 32 35
e 32 37
e 32 39
e 32 43
e 32 51
e 32 53
e 33 36
e 33 38
e 33 41
e 33 45
e 33 49
e 33 50
e 33 51
e 33 53
e 33 55
e 33 57
e 33 60
e 33 63
e 33 64
e 34 58
e 34 43
e 34 46
e 34 47
e 34 53
e 34 54
e 34 56
e 34 61
e 34 62
e 35 49
e 35 42
e 35 47
e 35 45
e 35 51
e 35 56
e 35 59
e 36 39
e 36 41
e 36 45
e 36 47
e 36 48
e 36 49
e 36 54
e 36 55
e 36 57
e 36 62
e 37 41
e 37 42
e 37 43
e 37 46
e 37 64
e 37 49
e 37 50
e 37 51
e 37 39
e 37 62
e 38 39
e 38 40
e 38 43
e 38 45
e 38 49
e 38 50
e 38 51
e 38 56
e 38 60
e 38 61
e 38 62
e 39 41
e 39 45
e 39 51
e 39 47
e 39 49
e 39 61
e 40 41
e 40 45
e 40 46
e 40 49
e 40 51
e 40 53
e 40 55
e 40 62
e 40 63
e 40 64
e 41 42
e 41 46
e 41 51
e 41 52
e 41 53
e 41 54
e 41 55
e 41 56
e 41 59
e 41 62
e 41 63
e 42 63
e 42 58
e 42 62
e 42 64
e 43 47
e 43 51
e 43 56
e 43 58
e 43 59
e 44 47
e 44 50
e 44 51
e 44 53
e 44 54
e 44 55
e 44 56
e 44 62
e 45 52
e 45 46
e 45 47
e 45 56
e 45 60
e 45 62
e 45 63
e 46 48
e 46 49
e 46 52
e 46 54
e 46 58
e 46 63
e 47 48
e 47 60
e 47 61
e 47 63
e 47 52
e 48 64
e 48 49
e 48 60
e 48 58
e 49 50
e 49 53
e 49 54
e 49 56
e 49 58
e 49 59
e 49 61
e 49 62
e 50 60
e 50 51
e 50 57
e 50 56
e 50 64
e 51 52
e 51 61
e 52 53
e 52 57
e 52 60
e 52 61
e 52 62
e 53 58
e 53 57
e 54 62
e 55 58
e 55 62
e 56 62
e 56 64
e 57 59
e 57 61
e 57 63
e 59 62
e 59 61
e 60 62
e 60 63
e 61 62
